certificates/rado_a14_c190_N51.cnf
c Rad2 upper bound instance: x1 + 14*x2 - x3 = 190, interval [1,51]
p cnf 51 368
1 7 14 0
-1 -7 -14 0
1 15 21 0
-1 -15 -21 0
1 16 35 0
-1 -16 -35 0
1 17 49 0
-1 -17 -49 0
2 8 14 0
-2 -8 -14 0
2 15 22 0
-2 -15 -22 0
2 16 36 0
-2 -16 -36 0
2 17 50 0
-2 -17 -50 0
3 9 14 0
-3 -9 -14 0
3 15 23 0
-3 -15 -23 0
3 16 37 0
-3 -16 -37 0
3 17 51 0
-3 -17 -51 0
4 10 14 0
-4 -10 -14 0
4 15 24 0
-4 -15 -24 0
4 16 38 0
-4 -16 -38 0
5 11 14 0
-5 -11 -14 0
5 15 25 0
-5 -15 -25 0
5 16 39 0
-5 -16 -39 0
6 12 14 0
-6 -12 -14 0
6 15 26 0
-6 -15 -26 0
6 16 40 0
-6 -16 -40 0
7 13 14 0
-7 -13 -14 0
7 15 27 0
-7 -15 -27 0
7 16 41 0
-7 -16 -41 0
8 14 0
-8 -14 0
8 15 28 0
-8 -15 -28 0
8 16 42 0
-8 -16 -42 0
1 9 13 0
-1 -9 -13 0
9 14 15 0
-9 -14 -15 0
9 15 29 0
-9 -15 -29 0
9 16 43 0
-9 -16 -43 0
2 10 13 0
-2 -10 -13 0
10 14 16 0
-10 -14 -16 0
10 15 30 0
-10 -15 -30 0
10 16 44 0
-10 -16 -44 0
3 11 13 0
-3 -11 -13 0
11 14 17 0
-11 -14 -17 0
11 15 31 0
-11 -15 -31 0
11 16 45 0
-11 -16 -45 0
4 12 13 0
-4 -12 -13 0
12 14 18 0
-12 -14 -18 0
12 15 32 0
-12 -15 -32 0
12 16 46 0
-12 -16 -46 0
5 13 0
-5 -13 0
13 14 19 0
-13 -14 -19 0
13 15 33 0
-13 -15 -33 0
13 16 47 0
-13 -16 -47 0
6 13 14 0
-6 -13 -14 0
14 20 0
-14 -20 0
14 15 34 0
-14 -15 -34 0
14 16 48 0
-14 -16 -48 0
7 13 15 0
-7 -13 -15 0
14 15 21 0
-14 -15 -21 0
15 35 0
-15 -35 0
15 16 49 0
-15 -16 -49 0
8 13 16 0
-8 -13 -16 0
14 16 22 0
-14 -16 -22 0
15 16 36 0
-15 -16 -36 0
16 50 0
-16 -50 0
9 13 17 0
-9 -13 -17 0
14 17 23 0
-14 -17 -23 0
15 17 37 0
-15 -17 -37 0
16 17 51 0
-16 -17 -51 0
10 13 18 0
-10 -13 -18 0
14 18 24 0
-14 -18 -24 0
15 18 38 0
-15 -18 -38 0
11 13 19 0
-11 -13 -19 0
14 19 25 0
-14 -19 -25 0
15 19 39 0
-15 -19 -39 0
12 13 20 0
-12 -13 -20 0
14 20 26 0
-14 -20 -26 0
15 20 40 0
-15 -20 -40 0
13 21 0
-13 -21 0
14 21 27 0
-14 -21 -27 0
15 21 41 0
-15 -21 -41 0
13 14 22 0
-13 -14 -22 0
14 22 28 0
-14 -22 -28 0
15 22 42 0
-15 -22 -42 0
1 12 23 0
-1 -12 -23 0
13 15 23 0
-13 -15 -23 0
14 23 29 0
-14 -23 -29 0
15 23 43 0
-15 -23 -43 0
2 12 24 0
-2 -12 -24 0
13 16 24 0
-13 -16 -24 0
14 24 30 0
-14 -24 -30 0
15 24 44 0
-15 -24 -44 0
3 12 25 0
-3 -12 -25 0
13 17 25 0
-13 -17 -25 0
14 25 31 0
-14 -25 -31 0
15 25 45 0
-15 -25 -45 0
4 12 26 0
-4 -12 -26 0
13 18 26 0
-13 -18 -26 0
14 26 32 0
-14 -26 -32 0
15 26 46 0
-15 -26 -46 0
5 12 27 0
-5 -12 -27 0
13 19 27 0
-13 -19 -27 0
14 27 33 0
-14 -27 -33 0
15 27 47 0
-15 -27 -47 0
6 12 28 0
-6 -12 -28 0
13 20 28 0
-13 -20 -28 0
14 28 34 0
-14 -28 -34 0
15 28 48 0
-15 -28 -48 0
7 12 29 0
-7 -12 -29 0
13 21 29 0
-13 -21 -29 0
14 29 35 0
-14 -29 -35 0
15 29 49 0
-15 -29 -49 0
8 12 30 0
-8 -12 -30 0
13 22 30 0
-13 -22 -30 0
14 30 36 0
-14 -30 -36 0
15 30 50 0
-15 -30 -50 0
9 12 31 0
-9 -12 -31 0
13 23 31 0
-13 -23 -31 0
14 31 37 0
-14 -31 -37 0
15 31 51 0
-15 -31 -51 0
10 12 32 0
-10 -12 -32 0
13 24 32 0
-13 -24 -32 0
14 32 38 0
-14 -32 -38 0
11 12 33 0
-11 -12 -33 0
13 25 33 0
-13 -25 -33 0
14 33 39 0
-14 -33 -39 0
12 34 0
-12 -34 0
13 26 34 0
-13 -26 -34 0
14 34 40 0
-14 -34 -40 0
12 13 35 0
-12 -13 -35 0
13 27 35 0
-13 -27 -35 0
14 35 41 0
-14 -35 -41 0
12 14 36 0
-12 -14 -36 0
13 28 36 0
-13 -28 -36 0
14 36 42 0
-14 -36 -42 0
1 11 37 0
-1 -11 -37 0
12 15 37 0
-12 -15 -37 0
13 29 37 0
-13 -29 -37 0
14 37 43 0
-14 -37 -43 0
2 11 38 0
-2 -11 -38 0
12 16 38 0
-12 -16 -38 0
13 30 38 0
-13 -30 -38 0
14 38 44 0
-14 -38 -44 0
3 11 39 0
-3 -11 -39 0
12 17 39 0
-12 -17 -39 0
13 31 39 0
-13 -31 -39 0
14 39 45 0
-14 -39 -45 0
4 11 40 0
-4 -11 -40 0
12 18 40 0
-12 -18 -40 0
13 32 40 0
-13 -32 -40 0
14 40 46 0
-14 -40 -46 0
5 11 41 0
-5 -11 -41 0
12 19 41 0
-12 -19 -41 0
13 33 41 0
-13 -33 -41 0
14 41 47 0
-14 -41 -47 0
6 11 42 0
-6 -11 -42 0
12 20 42 0
-12 -20 -42 0
13 34 42 0
-13 -34 -42 0
14 42 48 0
-14 -42 -48 0
7 11 43 0
-7 -11 -43 0
12 21 43 0
-12 -21 -43 0
13 35 43 0
-13 -35 -43 0
14 43 49 0
-14 -43 -49 0
8 11 44 0
-8 -11 -44 0
12 22 44 0
-12 -22 -44 0
13 36 44 0
-13 -36 -44 0
14 44 50 0
-14 -44 -50 0
9 11 45 0
-9 -11 -45 0
12 23 45 0
-12 -23 -45 0
13 37 45 0
-13 -37 -45 0
14 45 51 0
-14 -45 -51 0
10 11 46 0
-10 -11 -46 0
12 24 46 0
-12 -24 -46 0
13 38 46 0
-13 -38 -46 0
11 47 0
-11 -47 0
12 25 47 0
-12 -25 -47 0
13 39 47 0
-13 -39 -47 0
11 12 48 0
-11 -12 -48 0
12 26 48 0
-12 -26 -48 0
13 40 48 0
-13 -40 -48 0
11 13 49 0
-11 -13 -49 0
12 27 49 0
-12 -27 -49 0
13 41 49 0
-13 -41 -49 0
11 14 50 0
-11 -14 -50 0
12 28 50 0
-12 -28 -50 0
13 42 50 0
-13 -42 -50 0
1 10 51 0
-1 -10 -51 0
11 15 51 0
-11 -15 -51 0
12 29 51 0
-12 -29 -51 0
13 43 51 0
-13 -43 -51 0
