certificates/rado_a14_c190_N51.drat
11 16 -51 0
-50 -51 0
47 -51 0
-51 0
-47 0
11 0
16 0
-50 0
-45 0
14 0
-8 0
-10 0
-20 0
-48 0
-22 0
-5 0
-17 0
1 0
13 0
2 0
3 0
-35 0
-37 0
-7 0
-9 0
-21 0
0
